words_hard_train/3262.qaiger
aag 68 16 0 1 52
2
4
12
14
22
24
38
40
44
48
56
58
70
72
84
86
136
6 2 4
8 3 5
10 7 9
16 13 15
18 12 14
20 17 19
26 22 24
28 20 26
30 29 19
32 11 31
34 10 30
36 33 35
42 39 41
46 43 44
50 46 48
52 38 40
54 51 53
60 57 59
62 56 58
64 61 63
66 55 64
68 67 63
74 71 73
76 70 72
78 75 77
80 69 78
82 81 77
88 85 87
90 84 86
92 89 91
94 83 92
96 95 91
98 23 25
100 99 27
102 97 100
104 102 20
106 36 105
108 103 27
110 108 21
112 111 29
114 54 65
116 115 67
118 68 79
120 119 81
122 116 120
124 82 93
126 125 95
128 123 127
130 96 101
132 129 131
134 113 133
136 106 135
i0 2 y2[7]
i1 1 x1[7]
i2 2 y2[6]
i3 1 x1[6]
i4 2 y2[5]
i5 1 x1[5]
i6 2 y2[1]
i7 1 x1[1]
i8 1 x1[0]
i9 2 y2[0]
i10 2 y2[2]
i11 1 x1[2]
i12 2 y2[3]
i13 1 x1[3]
i14 2 y2[4]
i15 1 x1[4]
o0 bv[0]
c
simplified
  >
    add
      2 y2
      1 x1
    or
      -213
      abs
        1
