words_hard_train/3262.qaiger.qdimacs
p cnf 68 157
a 2 36 7 43 12 20 22 29 0
e 1 3 4 5 6 8 9 10 11 13 14 15 16 17 18 19 21 23 24 25 26 27 28 30 31 32 33 34 35 37 38 39 40 41 42 44 45 46 47 48 49 50 51 52 53 54 55 56 57 58 59 60 61 62 63 64 65 66 67 68 0
-1 -2 3 0
1 -3 0
2 -3 0
1 2 4 0
-1 -4 0
-2 -4 0
3 4 5 0
-3 -5 0
-4 -5 0
6 7 8 0
-6 -8 0
-7 -8 0
-6 -7 9 0
6 -9 0
7 -9 0
8 9 10 0
-8 -10 0
-9 -10 0
-11 -12 13 0
11 -13 0
12 -13 0
-10 -13 14 0
10 -14 0
13 -14 0
14 9 15 0
-14 -15 0
-9 -15 0
5 15 16 0
-5 -16 0
-15 -16 0
-5 -15 17 0
5 -17 0
15 -17 0
16 17 18 0
-16 -18 0
-17 -18 0
19 20 21 0
-19 -21 0
-20 -21 0
21 -22 23 0
-21 -23 0
22 -23 0
-23 -24 25 0
23 -25 0
24 -25 0
-19 -20 26 0
19 -26 0
20 -26 0
25 26 27 0
-25 -27 0
-26 -27 0
28 29 30 0
-28 -30 0
-29 -30 0
-28 -29 31 0
28 -31 0
29 -31 0
30 31 32 0
-30 -32 0
-31 -32 0
27 -32 33 0
-27 -33 0
32 -33 0
33 31 34 0
-33 -34 0
-31 -34 0
35 36 37 0
-35 -37 0
-36 -37 0
-35 -36 38 0
35 -38 0
36 -38 0
37 38 39 0
-37 -39 0
-38 -39 0
34 -39 40 0
-34 -40 0
39 -40 0
40 38 41 0
-40 -41 0
-38 -41 0
42 43 44 0
-42 -44 0
-43 -44 0
-42 -43 45 0
42 -45 0
43 -45 0
44 45 46 0
-44 -46 0
-45 -46 0
41 -46 47 0
-41 -47 0
46 -47 0
47 45 48 0
-47 -48 0
-45 -48 0
11 12 49 0
-11 -49 0
-12 -49 0
49 13 50 0
-49 -50 0
-13 -50 0
48 -50 51 0
-48 -51 0
50 -51 0
-51 -10 52 0
51 -52 0
10 -52 0
-18 52 53 0
18 -53 0
-52 -53 0
51 13 54 0
-51 -54 0
-13 -54 0
-54 10 55 0
54 -55 0
-10 -55 0
55 14 56 0
-55 -56 0
-14 -56 0
-27 32 57 0
27 -57 0
-32 -57 0
57 33 58 0
-57 -58 0
-33 -58 0
-34 39 59 0
34 -59 0
-39 -59 0
59 40 60 0
-59 -60 0
-40 -60 0
-58 -60 61 0
58 -61 0
60 -61 0
-41 46 62 0
41 -62 0
-46 -62 0
62 47 63 0
-62 -63 0
-47 -63 0
61 63 64 0
-61 -64 0
-63 -64 0
-48 50 65 0
48 -65 0
-50 -65 0
64 65 66 0
-64 -66 0
-65 -66 0
56 66 67 0
-56 -67 0
-66 -67 0
-53 67 68 0
53 -68 0
-67 -68 0
68 0
